-1 0
-94 -35
-91 -38
-86 -41
-83 -42
-81 -45
-78 -49
-73 -52
-66 -55
-61 -59
-54 -63
-45 -66
-36 -68
-29 -70
-20 -73
-11 -75
-4 -78
1 -82
8 -85
14 -87
19 -88
23 -87
27 -85
29 -81
31 -77
35 -75
38 -75
40 -73
40 -73
38 -71
37 -67
35 -61
31 -57
26 -55
22 -54
16 -52
8 -50
2 -46
-5 -42
-11 -36
-15 -32
-17 -28
-17 -23
-15 -20
-12 -15
-11 -12
-10 -11
-7 -9
-6 -6
-4 -2
